; benchmark generated from python API
(set-info :status unknown)
(declare-fun S_0 () Real)
(declare-fun S_5 () Real)
(declare-fun C () Real)
(declare-fun S_4 () Real)
(declare-fun S_2 () Real)
(declare-fun S_3 () Real)
(declare-fun S_1 () Real)
(declare-fun L0 () Real)
(declare-fun A_0 () Real)
(declare-fun A_4 () Real)
(declare-fun A_1 () Real)
(declare-fun A_3 () Real)
(declare-fun A_2 () Real)
(declare-fun A_5 () Real)
(assert
 (let (($x42 (>= L0 0.0)))
 (let (($x926 (>= C 5.0)))
 (let ((?x9744 (* (/ 1.0 2.0) S_0)))
 (let ((?x3532 (* (/ 1.0 2.0) A_4)))
 (let ((?x7643 (* (- (/ 1.0 2.0)) S_5)))
 (let ((?x3232 (* (- (/ 1.0 2.0)) A_1)))
 (let ((?x4122 (* (- (/ 1.0 2.0)) A_3)))
 (let ((?x3963 (* (/ 1.0 2.0) A_2)))
 (let (($x45724 (<= (+ (* 3.0 C) A_2 (* (- 1.0) A_1) (* (- 1.0) S_5) S_0) (- 5.0))))
 (let (($x43895 (<= (+ C A_4 (* (- 1.0) A_1) (* (- 1.0) S_5) S_0) (- 5.0))))
 (let (($x440 (<= (+ (* (- 1.0) C) A_4 (* (- 1.0) A_3)) 0.0)))
 (let (($x41738 (not $x440)))
 (let (($x88784 (or $x41738 (not (<= (+ (* (- 1.0) C) A_2 (* (- 1.0) A_1)) (- 5.0))) $x43895 $x45724 (<= (+ C ?x3963 ?x4122 ?x3232 ?x7643 ?x3532 ?x9744) (- 5.0)))))
 (let (($x40798 (<= (+ (* 2.0 C) (* (- 1.0) S_3) S_0) 0.0)))
 (let ((?x317 (* (- 1.0) S_3)))
 (let ((?x6441 (* (/ 1.0 2.0) S_5)))
 (let ((?x10061 (* (- (/ 1.0 2.0)) A_5)))
 (let (($x40387 (<= (+ (* (- 1.0) C) A_3 (* (- 1.0) A_2)) 0.0)))
 (let (($x44310 (not $x40387)))
 (let (($x40074 (<= (+ (* 3.0 C) (* (- 1.0) S_4) S_0) 0.0)))
 (let (($x42549 (<= 0.0 (+ (* (- 1.0) A_2) C A_1))))
 (let (($x39962 (not $x42549)))
 (let (($x16187 (<= (+ ?x10061 (* (/ 1.0 2.0) A_3) ?x3532 ?x3232 ?x6441 (* (- 1.0) S_4) ?x9744) 0.0)))
 (let (($x41484 (<= (+ (* 2.0 C) (* (- 1.0) S_4) S_1) 0.0)))
 (let (($x10653 (<= (+ A_3 (* (- 1.0) A_5) S_5 (* (- 1.0) S_4)) 0.0)))
 (let ((?x11119 (* (- 2.0) S_4)))
 (let ((?x619 (* (- 1.0) A_1)))
 (let ((?x603 (* (- 1.0) A_5)))
 (let ((?x1410 (* (- 2.0) C)))
 (let (($x37210 (<= (+ C S_2 (* (- 1.0) S_4)) 0.0)))
 (let (($x91109 (or $x37210 $x39962 (<= (+ ?x1410 ?x603 A_3 ?x619 A_4 S_2 S_5 ?x11119) 0.0))))
 (let ((?x2931 (* (/ 1.0 2.0) S_1)))
 (let ((?x637 (* (- 1.0) S_4)))
 (let ((?x3968 (* (/ 1.0 2.0) A_3)))
 (let ((?x4393 (* (/ 1.0 2.0) C)))
 (let (($x87149 (or (<= (+ ?x4393 ?x3963 ?x3968 ?x3232 ?x6441 ?x10061 ?x637 ?x2931) 0.0) $x40387 $x41484)))
 (let (($x585 (<= (+ C ?x317 S_1) 0.0)))
 (let (($x91213 (or $x585 (<= (+ (* (- (/ 1.0 2.0)) C) ?x3963 ?x3968 ?x3232 ?x6441 ?x10061 ?x317 ?x2931) 0.0))))
 (let (($x46157 (<= (+ (* 3.0 C) (* (- 1.0) S_5) S_1) 0.0)))
 (let (($x44106 (<= (+ C (* (- 1.0) A_4) A_3) 0.0)))
 (let (($x43164 (<= 0.0 (+ A_2 (* (- 1.0) C) S_5 (* (- 1.0) A_4) (* (- 1.0) S_1)))))
 (let (($x41878 (<= (+ (* 2.0 C) A_2 ?x619 (* (- 1.0) S_5) S_1) (- 5.0))))
 (let (($x41682 (<= (+ (* 2.0 C) A_4 (* (- 1.0) S_5) (* (- 1.0) A_3) S_1) (- 5.0))))
 (let (($x39867 (<= (+ C A_2 (* (- 1.0) A_3) ?x619 (* (- 1.0) S_5) A_4 S_1) (- 10.0))))
 (let (($x38611 (<= (+ A_4 ?x619 (* (- 1.0) S_5) S_1) (- 5.0))))
 (let (($x433 (<= (+ (* 4.0 C) (* (- 1.0) S_5) S_0) 0.0)))
 (let (($x43092 (<= (+ (* 3.0 C) A_4 (* (- 1.0) A_3) (* (- 1.0) S_5) S_0) (- 5.0))))
 (let (($x42570 (<= (+ (* (- 1.0) C) A_2 ?x619) (- 5.0))))
 (let (($x90498 (or $x38611 $x41878 (not (<= (- 5.0) (+ C A_2 (* (- 1.0) A_3)))) $x43164 $x44106 $x46157)))
 (let (($x42637 (<= (+ (* 2.0 C) S_2 (* (- 1.0) S_5)) 0.0)))
 (let (($x42199 (<= (+ (* (- 1.0) C) A_4 ?x619 S_2 (* (- 1.0) S_5)) (- 5.0))))
 (let ((?x1061 (* (- 1.0) S_0)))
 (let ((?x595 (* (- 1.0) S_5)))
 (let ((?x3417 (* 2.0 S_2)))
 (let ((?x611 (* (- 1.0) A_3)))
 (let ((?x615 (* (- 1.0) A_2)))
 (let ((?x379 (* (- 1.0) C)))
 (let (($x3416 (<= 0.0 (+ A_2 (* (- 1.0) S_2) S_5 (* (- 1.0) A_4)))))
 (let (($x89057 (or $x3416 $x41738 $x42637 (<= (+ ?x379 ?x615 ?x611 A_1 ?x3417 ?x595 A_4 ?x1061) 0.0))))
 (let (($x90831 (or (<= (+ ?x3963 ?x3968 ?x3232 ?x6441 (* (- (/ 1.0 2.0)) A_4) ?x637 ?x2931) 0.0) $x40387 $x41484)))
 (let (($x47684 (not $x44106)))
 (let (($x39781 (<= (+ C ?x619 A_3 ?x595 S_1) (- 5.0))))
 (let (($x588 (<= (+ ?x615 A_3 (* 2.0 C) ?x595 S_1) (- 5.0))))
 (let (($x91060 (or $x39962 $x41484 $x44310 (<= (+ (* (- (/ 1.0 2.0)) C) ?x10061 ?x3968 ?x3532 ?x3232 ?x6441 ?x637 ?x2931) 0.0))))
 (let (($x89121 (or $x585 (<= (+ ?x379 ?x3963 ?x3968 ?x3232 ?x6441 (* (- (/ 1.0 2.0)) A_4) ?x317 ?x2931) 0.0))))
 (let ((?x4264 (* (/ 1.0 2.0) S_4)))
 (let ((?x3663 (* (- (/ 1.0 2.0)) A_4)))
 (let ((?x4391 (* (- (/ 1.0 2.0)) C)))
 (let (($x45510 (<= (+ (* (- 3.0) C) ?x615 ?x611 A_1 ?x595 A_4 (* 2.0 S_3) ?x1061) 0.0)))
 (let (($x41056 (<= (+ C ?x595 S_3) 0.0)))
 (let (($x39732 (<= 0.0 (+ C A_2 S_5 (* (- 1.0) A_4) ?x317))))
 (let ((?x343 (* (- 1.0) S_1)))
 (let ((?x4649 (* 2.0 S_3)))
 (let (($x91364 (or $x39732 $x41056 (<= (+ ?x1410 ?x615 ?x611 A_1 ?x595 A_4 ?x4649 ?x343) 0.0))))
 (let (($x91033 (or $x40074 $x40387 (<= (+ C ?x3963 ?x3968 ?x3232 ?x6441 ?x10061 ?x637 ?x9744) 0.0))))
 (let (($x90848 (or $x40074 $x40387 (<= (+ ?x4393 ?x3963 ?x3968 ?x3232 ?x6441 ?x3663 ?x637 ?x9744) 0.0))))
 (let (($x40626 (<= (+ ?x619 A_3 ?x637 S_1) (- 5.0))))
 (let (($x88334 (or $x3416 (<= (+ ?x615 ?x611 A_1 ?x3417 ?x595 A_4 ?x343) 0.0) $x41738 $x42637)))
 (let (($x89983 (or (<= (+ A_2 ?x619 S_5 A_4 ?x603 ?x11119 S_1) 0.0) $x40387 $x41484)))
 (let (($x88477 (or $x40074 $x40387 (<= (+ C A_2 ?x619 S_5 A_4 ?x603 ?x11119 S_0) 0.0))))
 (let (($x47904 (<= (+ ?x379 A_2 ?x619 S_5 A_4 ?x603 (* (- 2.0) S_3) S_0) 0.0)))
 (let (($x43544 (<= (+ ?x615 C A_3 S_2 ?x595) (- 5.0))))
 (let (($x88962 (or $x433 $x41738 $x42549 $x44310 (<= (+ (* 2.0 C) A_4 ?x595 ?x615 S_0) (- 5.0)))))
 (let (($x43476 (<= (+ S_2 ?x615 A_3 ?x637) (- 5.0))))
 (let (($x90781 (or (<= (+ ?x615 A_4 A_3 S_5 ?x603 ?x11119 S_1) 0.0) $x41484 $x42549)))
 (let (($x90767 (or $x37210 $x42549 (<= (+ ?x615 ?x379 A_4 A_3 S_2 S_5 ?x603 ?x11119) 0.0))))
 (let (($x87950 (or $x40074 $x42549 (<= (+ ?x615 C A_4 A_3 S_5 ?x603 ?x11119 S_0) 0.0))))
 (let (($x45516 (<= (+ ?x379 ?x615 ?x611 A_1 (* (- 1.0) S_2) ?x595 A_4 ?x4649) 0.0)))
 (let (($x43505 (<= (+ ?x379 (* (- 1.0) A_4) A_3 S_5 ?x637) 0.0)))
 (let (($x89120 (or $x433 $x440 $x39962 $x44310 (<= (+ (* 2.0 C) A_3 ?x619 ?x595 S_0) (- 5.0)))))
 (let (($x50610 (or $x433 $x440 $x42549 (<= (+ ?x615 A_3 (* 3.0 C) ?x595 S_0) (- 5.0)))))
 (let ((?x4106 (+ A_4 ?x595 ?x611 S_3)))
 (let (($x41063 (<= ?x4106 (- 5.0))))
 (let (($x89425 (or $x41056 $x41063 (<= (+ ?x1410 A_4 ?x619 ?x595 S_3) (- 5.0)) (<= (+ ?x379 ?x615 A_4 ?x595 S_3) (- 5.0)))))
 (let (($x43575 (<= (+ A_4 S_2 ?x595 ?x615) (- 5.0))))
 (let (($x42037 (<= (+ C ?x611 S_2 ?x595 A_4) (- 5.0))))
 (let (($x45432 (<= (+ ?x1410 A_2 ?x619 S_5 A_4 ?x603 (* (- 2.0) S_3) S_1) 0.0)))
 (let (($x89760 (or $x585 (<= (+ ?x4391 ?x10061 ?x4122 ?x3532 ?x3232 ?x6441 A_2 ?x317 ?x2931) 0.0))))
 (let (($x131 (>= S_1 S_0)))
 (let (($x134 (>= S_2 S_1)))
 (let (($x137 (>= S_3 S_2)))
 (let (($x140 (>= S_4 S_3)))
 (let (($x143 (>= S_5 S_4)))
 (let (($x145 (>= A_1 A_0)))
 (let (($x146 (>= A_2 A_1)))
 (let (($x147 (>= A_3 A_2)))
 (let (($x148 (>= A_4 A_3)))
 (let (($x149 (>= A_5 A_4)))
 (and $x149 $x148 $x147 $x146 $x145 $x143 $x140 $x137 $x134 $x131 (or $x39732 $x41056 $x41063) (or $x37210 (<= (+ A_3 S_2 ?x615 ?x637) 0.0)) (or $x42549 (<= (+ ?x379 ?x611 A_4) (- 5.0)) $x42637 $x43544 $x43575) (or $x40798 $x42549) (or $x41056 (<= ?x4106 0.0)) (or $x585 (<= (+ ?x379 ?x611 A_2 S_4 ?x317) 0.0)) (or $x40798 (<= (+ C A_2 ?x619 ?x317 S_0) (- 5.0))) (or $x585 (<= (+ A_2 ?x619 ?x317 S_1) (- 5.0))) $x89760 (or $x585 (<= (+ ?x603 S_5 A_2 ?x317) 0.0)) (or $x585 $x45432) (or $x440 (<= (+ C A_3 S_2 ?x595 ?x615) 0.0) $x42637) (or $x37210 $x42549 $x43476) (or $x10653 $x37210) (or $x41738 $x42037 $x42549 $x42637 $x43575) (or $x40387 $x41056 $x41063 $x42549) (or $x433 $x40387 $x42549 $x43092) (<= (+ (* (- 5.0) C) S_5 ?x343) 0.0) $x89425 (or $x40074 $x42570 $x43505) (or (<= (+ ?x615 A_3 (* 2.0 C) ?x637 S_0) (- 5.0)) $x40074 $x42549) $x50610 (or (<= (+ (* (- 1.0) A_4) A_2 S_4 ?x317) 0.0) $x40798) (or $x433 $x440 $x40387 $x45724) $x89120 (or $x440 $x588 $x39781 $x41878 $x46157) (or $x38611 $x40387 $x41682 $x42570 $x46157) (or $x41484 $x43505 $x44310) (or $x40074 $x40387 (<= (+ (* 2.0 C) A_2 ?x619 ?x637 S_0) (- 5.0))) (or $x40074 $x43505 $x44310) (or $x40798 (<= (+ ?x379 ?x611 A_2 S_4 ?x317) 0.0)) (or (<= (+ ?x3963 ?x3968 ?x3232 ?x3663 ?x4264 ?x317 ?x9744) 0.0) $x40798) (or $x37210 $x43505) (or $x39732 $x41056 $x45516) $x87950 (or $x10653 $x40074 $x42570) $x90767 (or $x40387 $x41484 (<= (+ C A_2 ?x619 ?x637 S_1) (- 5.0))) $x90781 (or $x37210 $x43476 (<= (+ ?x379 A_3 ?x619 S_2 ?x637) (- 5.0))) $x88962 (or $x42549 (<= (+ C ?x615 A_4 ?x595 S_1) (- 5.0)) $x44106 $x44310 $x46157) (or $x40387 $x41878 $x46157 $x47684) (or $x440 $x42637 $x43544 (<= (+ A_3 ?x619 S_2 ?x595) (- 5.0))) (or $x40798 $x47904) (or (<= (+ ?x603 S_5 A_2 ?x317) 0.0) $x40798) (or $x585 (<= (+ ?x1410 ?x611 S_5 A_2 ?x317) 0.0)) (or $x40798 (<= (+ ?x1410 ?x611 S_5 A_2 ?x317) 0.0)) (or $x40074 $x40387 (<= (+ C A_2 ?x603 S_5 ?x637) 0.0)) $x88477 (or $x39962 $x40074 $x44310 (<= (+ C A_3 ?x619 ?x637 S_0) (- 5.0))) $x89983 (or $x3416 $x41738 $x42037 $x42637) $x88334 (or $x40626 $x41484 $x42570 (<= (+ C ?x615 A_3 ?x637 S_1) (- 5.0))) (or $x40626 $x41484 (not (<= 0.0 (+ C ?x615 A_3 ?x637 S_1))) $x44310) (or $x585 (<= (+ ?x379 (* (- 1.0) A_4) S_5 A_2 ?x317) 0.0)) (or $x40387 $x42037 $x42199 $x42637) (or (<= (+ (* (- 1.0) A_4) S_5 A_2 ?x637) 0.0) $x40387 $x41484) (or (<= (+ (* (- 1.0) A_4) S_5 A_2 ?x637) 0.0) $x40074 $x40387) $x90848 $x91033 $x91364 (or $x10653 $x40074 $x44310) (or $x40798 (<= (+ ?x379 (* (- 1.0) A_4) S_5 A_2 ?x317) 0.0)) (or $x40798 (<= (+ ?x4391 ?x3963 ?x3968 ?x3232 ?x6441 ?x3663 ?x317 ?x9744) 0.0)) (or (<= (+ ?x3963 ?x3968 ?x3232 ?x6441 ?x10061 ?x317 ?x9744) 0.0) $x40798) (or $x40387 $x41484 (<= (+ C A_2 ?x603 S_5 ?x637) 0.0)) (or $x39732 $x41056 $x45510) (or $x585 (<= (+ ?x4391 ?x3963 ?x3968 ?x3232 ?x3663 ?x4264 ?x317 ?x2931) 0.0)) $x89121 $x91060 (or $x38611 $x39962 $x41682 $x42570 $x44106 $x46157) (or $x588 $x39781 $x42570 $x46157 $x47684) (or $x38611 $x41738 $x41878 (<= (+ ?x379 ?x611 A_4) (- 5.0)) $x43164 $x46157) (or $x585 (<= (+ (* (- 1.0) A_4) A_2 S_4 ?x317) 0.0)) $x90831 $x89057 (or $x39962 $x41738 $x42199 $x42637 $x44310) $x90498 (or $x433 $x40387 $x42570 $x43092 $x43895) (or $x433 $x39962 $x41738 $x43895 $x44310) (or $x38611 $x39867 $x41682 $x41878 $x43164 $x44106 $x46157) $x91213 $x87149 $x91109 (or $x10653 $x41484 $x44310) (or $x16187 $x39962 $x40074 $x44310) (or (<= (+ ?x10061 ?x4122 ?x3532 ?x3232 ?x6441 A_2 ?x317 ?x9744) 0.0) $x40798) $x88784 $x926 $x42 (not (>= (+ S_5 (* (- 1.0) A_0) L0) 0.0)) (<= (+ C (* (- 1.0) S_2) S_0) 0.0) (<= (+ ?x1410 S_2 ?x343) 0.0) (<= (+ (* (- 3.0) C) S_3 ?x343) 0.0) (<= (+ ?x1410 (* (- 1.0) S_2) S_3) 0.0) (<= (+ ?x1410 S_1 ?x1061) 0.0) (<= (+ (* (- 4.0) C) S_3 ?x1061) 0.0) (<= (+ (* (- 5.0) C) S_4 ?x1061) 0.0) (<= (+ ?x1410 S_5 ?x637) 0.0) (<= (+ (* (- 4.0) C) S_4 ?x343) 0.0) (<= (+ ?x1410 S_4 ?x317) 0.0) (<= (+ (* (- 3.0) C) S_5 ?x317) 0.0) (<= (+ (* (- 3.0) C) S_2 ?x1061) 0.0) (<= (+ (* (- 4.0) C) (* (- 1.0) S_2) S_5) 0.0) (<= (+ (* (- 3.0) C) (* (- 1.0) S_2) S_4) 0.0) (<= (+ (* (- 6.0) C) S_5 ?x1061) 0.0)))))))))))))))))))))))))))))))))))))))))))))))))))))))))))))))))))))))))))))))))))))))))))))))))))))))))))))))
(check-sat)
